c generated by sgen
p cnf 121 252
-2 -3 -4 0
-1 -3 -4 0
-1 -2 -4 0
-1 -2 -3 0
-6 -7 -8 0
-5 -7 -8 0
-5 -6 -8 0
-5 -6 -7 0
-10 -11 -12 0
-9 -11 -12 0
-9 -10 -12 0
-9 -10 -11 0
-14 -15 -16 0
-13 -15 -16 0
-13 -14 -16 0
-13 -14 -15 0
-18 -19 -20 0
-17 -19 -20 0
-17 -18 -20 0
-17 -18 -19 0
-22 -23 -24 0
-21 -23 -24 0
-21 -22 -24 0
-21 -22 -23 0
-26 -27 -28 0
-25 -27 -28 0
-25 -26 -28 0
-25 -26 -27 0
-30 -31 -32 0
-29 -31 -32 0
-29 -30 -32 0
-29 -30 -31 0
-34 -35 -36 0
-33 -35 -36 0
-33 -34 -36 0
-33 -34 -35 0
-38 -39 -40 0
-37 -39 -40 0
-37 -38 -40 0
-37 -38 -39 0
-42 -43 -44 0
-41 -43 -44 0
-41 -42 -44 0
-41 -42 -43 0
-46 -47 -48 0
-45 -47 -48 0
-45 -46 -48 0
-45 -46 -47 0
-50 -51 -52 0
-49 -51 -52 0
-49 -50 -52 0
-49 -50 -51 0
-54 -55 -56 0
-53 -55 -56 0
-53 -54 -56 0
-53 -54 -55 0
-58 -59 -60 0
-57 -59 -60 0
-57 -58 -60 0
-57 -58 -59 0
-62 -63 -64 0
-61 -63 -64 0
-61 -62 -64 0
-61 -62 -63 0
-66 -67 -68 0
-65 -67 -68 0
-65 -66 -68 0
-65 -66 -67 0
-70 -71 -72 0
-69 -71 -72 0
-69 -70 -72 0
-69 -70 -71 0
-74 -75 -76 0
-73 -75 -76 0
-73 -74 -76 0
-73 -74 -75 0
-78 -79 -80 0
-77 -79 -80 0
-77 -78 -80 0
-77 -78 -79 0
-82 -83 -84 0
-81 -83 -84 0
-81 -82 -84 0
-81 -82 -83 0
-86 -87 -88 0
-85 -87 -88 0
-85 -86 -88 0
-85 -86 -87 0
-90 -91 -92 0
-89 -91 -92 0
-89 -90 -92 0
-89 -90 -91 0
-94 -95 -96 0
-93 -95 -96 0
-93 -94 -96 0
-93 -94 -95 0
-98 -99 -100 0
-97 -99 -100 0
-97 -98 -100 0
-97 -98 -99 0
-102 -103 -104 0
-101 -103 -104 0
-101 -102 -104 0
-101 -102 -103 0
-106 -107 -108 0
-105 -107 -108 0
-105 -106 -108 0
-105 -106 -107 0
-110 -111 -112 0
-109 -111 -112 0
-109 -110 -112 0
-109 -110 -111 0
-114 -115 -116 0
-113 -115 -116 0
-113 -114 -116 0
-113 -114 -115 0
-117 -118 -119 0
-117 -118 -120 0
-117 -118 -121 0
-117 -119 -120 0
-117 -119 -121 0
-117 -120 -121 0
-118 -119 -120 0
-118 -119 -121 0
-118 -120 -121 0
-119 -120 -121 0
67 64 103 0
121 64 103 0
121 67 103 0
121 67 64 0
84 42 48 0
89 42 48 0
89 84 48 0
89 84 42 0
93 107 45 0
2 107 45 0
2 93 45 0
2 93 107 0
19 61 22 0
112 61 22 0
112 19 22 0
112 19 61 0
62 15 115 0
92 15 115 0
92 62 115 0
92 62 15 0
70 73 11 0
4 73 11 0
4 70 11 0
4 70 73 0
6 24 98 0
96 24 98 0
96 6 98 0
96 6 24 0
65 39 9 0
23 39 9 0
23 65 9 0
23 65 39 0
95 17 75 0
78 17 75 0
78 95 75 0
78 95 17 0
111 26 80 0
88 26 80 0
88 111 80 0
88 111 26 0
25 47 10 0
30 47 10 0
30 25 10 0
30 25 47 0
117 100 110 0
81 100 110 0
81 117 110 0
81 117 100 0
29 60 99 0
49 60 99 0
49 29 99 0
49 29 60 0
101 37 119 0
50 37 119 0
50 101 119 0
50 101 37 0
46 109 68 0
56 109 68 0
56 46 68 0
56 46 109 0
77 58 54 0
106 58 54 0
106 77 54 0
106 77 58 0
32 7 83 0
40 7 83 0
40 32 83 0
40 32 7 0
16 43 1 0
38 43 1 0
38 16 1 0
38 16 43 0
97 55 114 0
74 55 114 0
74 97 114 0
74 97 55 0
51 63 87 0
82 63 87 0
82 51 87 0
82 51 63 0
90 79 33 0
3 79 33 0
3 90 33 0
3 90 79 0
27 21 41 0
52 21 41 0
52 27 41 0
52 27 21 0
8 72 44 0
118 72 44 0
118 8 44 0
118 8 72 0
94 66 57 0
35 66 57 0
35 94 57 0
35 94 66 0
53 14 31 0
34 14 31 0
34 53 31 0
34 53 14 0
69 85 13 0
104 85 13 0
104 69 13 0
104 69 85 0
113 71 108 0
36 71 108 0
36 113 108 0
36 113 71 0
105 91 28 0
76 91 28 0
76 105 28 0
76 105 91 0
5 102 59 0
20 102 59 0
20 5 59 0
20 5 102 0
18 120 86 0
18 120 12 0
18 120 116 0
18 86 12 0
18 86 116 0
18 12 116 0
120 86 12 0
120 86 116 0
120 12 116 0
86 12 116 0
